60 1000
1 485 2 3 5 7 9 14 15 17 20 23 26 27 29 39 40 41 49 53 54 55 57 59
2 256 3 4 5 6 7 8 9 10 13 14 15 16 17 18 19 20 21 22 23 24 25 26 27 28 29 31 32 33 34 35 36 37 38 39 40 41 42 44 45 46 47 48 49 50 51 53 54 55 56 57 58 59 60
3 259 4 5 6 7 8 9 10 11 12 13 14 15 16 17 18 19 20 21 22 23 24 25 26 27 28 29 30 31 32 33 34 35 36 37 38 39 40 41 42 43 44 45 46 47 48 49 50 51 52 53 54 55 56 57 58 59 60
4 491 5 6 7 8 9 10 13 14 15 17 19 20 23 24 26 27 29 33 34 35 36 38 39 40 41 45 47 49 50 53 54 55 56 57 59 60
5 251 6 7 8 9 10 11 12 13 14 15 16 17 18 19 20 21 22 23 24 25 26 27 28 29 30 31 32 33 34 35 36 37 38 39 40 41 42 43 44 45 46 47 48 49 50 51 52 53 54 55 56 57 58 59 60
6 258 7 8 9 13 14 15 17 20 23 24 26 27 29 34 35 38 39 40 41 45 47 49 53 54 55 56 57 59
7 353 8 9 10 11 12 13 14 15 16 17 18 19 20 21 22 23 24 25 26 27 28 29 30 31 32 33 34 35 36 37 38 39 40 41 42 43 44 45 46 47 48 49 50 51 52 53 54 55 56 57 58 59 60
8 312 9 13 14 15 17 19 20 23 24 26 27 29 33 34 35 38 39 40 41 45 47 49 50 53 54 55 56 57 59
9 335 10 11 12 13 14 15 16 17 18 19 20 21 22 23 24 25 26 27 28 29 30 31 32 33 34 35 36 37 38 39 40 41 42 43 44 45 46 47 48 49 50 51 52 53 54 55 56 57 58 59 60
10 498 14 15 17 20 23 26 27 29 34 38 39 40 41 47 49 53 54 55 56 57 59
11 250 15 17 20 23 26 27 39 40 41 49 53 55 57 59
12 252 15 17 20 23 26 27 39 40 41 49 53 55 57 59
13 361 14 15 17 19 20 23 24 26 27 29 33 34 35 38 39 40 41 45 47 49 50 53 54 55 56 57 59
14 293 15 16 17 18 19 20 21 22 23 24 25 26 27 28 29 31 32 33 34 35 36 37 38 39 40 41 42 44 45 46 47 48 49 50 51 53 54 55 56 57 58 59 60
15 346 16 17 18 19 20 21 22 23 24 25 26 27 28 29 30 31 32 33 34 35 36 37 38 39 40 41 42 43 44 45 46 47 48 49 50 51 52 53 54 55 56 57 58 59 60
16 378 17 20 23 26 27 29 38 39 40 41 47 49 53 54 55 56 57 59
17 252 18 19 20 21 22 23 24 25 26 27 28 29 30 31 32 33 34 35 36 37 38 39 40 41 42 43 44 45 46 47 48 49 50 51 52 53 54 55 56 57 58 59 60
18 370 20 23 26 27 29 38 39 40 41 47 49 53 54 55 56 57 59
19 451 20 23 24 26 27 29 34 35 38 39 40 41 45 47 49 53 54 55 56 57 59
20 256 21 22 23 24 25 26 27 28 29 30 31 32 33 34 35 36 37 38 39 40 41 42 43 44 45 46 47 48 49 50 51 53 54 55 56 57 58 59 60
21 293 23 26 27 29 38 39 40 41 47 49 53 54 55 56 57 59
22 439 23 26 27 29 38 39 40 41 47 49 53 54 55 56 57 59
23 269 24 25 26 27 28 29 30 31 32 33 34 35 36 37 38 39 40 41 42 43 44 45 46 47 48 49 50 51 52 53 54 55 56 57 58 59 60
24 292 26 27 29 33 34 35 38 39 40 41 45 47 49 50 53 54 55 56 57 59
25 453 26 27 29 38 39 40 41 49 53 54 55 57 59
26 263 27 28 29 30 31 32 33 34 35 36 37 38 39 40 41 42 44 45 46 47 48 49 50 51 53 54 55 56 57 58 59 60
27 284 28 29 30 31 32 33 34 35 36 37 38 39 40 41 42 44 45 46 47 48 49 50 51 53 54 55 56 57 58 59 60
28 398 29 38 39 40 41 49 53 54 55 56 57 59
29 259 31 32 33 34 35 36 37 38 39 40 41 42 44 45 46 47 48 49 50 51 53 54 55 56 57 58 59 60
30 343 39 40 41 49 53 55 57 59
31 391 38 39 40 41 49 53 54 55 56 57 59
32 255 38 39 40 41 47 49 53 54 55 56 57 59
33 354 34 35 38 39 40 41 45 47 49 53 54 55 56 57 59
34 462 35 38 39 40 41 45 47 49 50 53 54 55 56 57 59
35 252 38 39 40 41 45 47 49 50 53 54 55 56 57 59
36 286 38 39 40 41 47 49 53 54 55 56 57 59
37 363 39 40 41 49 53 54 55 57 59
38 254 39 40 41 45 47 48 49 50 51 53 54 55 56 57 59 60
39 383 40 41 42 43 44 45 46 47 48 49 50 51 52 53 54 55 56 57 58 59 60
40 381 41 42 43 44 45 46 47 48 49 50 51 52 53 54 55 56 57 58 59 60
41 278 42 43 44 45 46 47 48 49 50 51 52 53 54 55 56 57 58 59 60
42 341 49 53 54 55 57 59
43 454 49 53 55 57 59
44 251 49 53 54 55 57 59
45 295 47 49 50 53 54 55 56 57 59
46 356 49 53 54 55 57 59
47 283 49 50 51 53 54 55 56 57 59 60
48 361 49 53 54 55 57 59
49 453 50 51 52 53 54 55 56 57 58 59 60
50 272 53 54 55 56 57 59
51 275 53 54 55 56 57 59
52 357 53 57 59
53 275 54 55 56 57 58 59 60
54 368 55 56 57 58 59 60
55 468 56 57 58 59 60
56 250 57 59 60
57 282 58 59 60
58 352 59
59 280 60
60 368
